&control
          wf_collect = .true.,
         calculation = "nscf",
           verbosity = 'high',
          pseudo_dir = '/home/fpaleari/Pseudos',
              prefix = "mos2",
              outdir = '.',
 /&end
 &system
             ecutwfc = 100.0,
         occupations = 'fixed',
               ibrav = 4,
           celldm(1) = 5.9000811881,
           celldm(3) = 6.7795677253,
                 nat = 3,
                ntyp = 2,
            lspinorb = .true.
            noncolin = .true.
               nbnd  = 250
            assume_isolated = '2D'
        force_symmorphic = .true.
 /&end
 &electrons
    electron_maxstep = 200,
         mixing_beta = 0.7,
            conv_thr = 1.d-08,
 /&end
  ATOMIC_SPECIES
   Mo  95.940      Mo_ONCV_PBE_FR-1.0.upf
   S    32.065     S_ONCV_PBE_FR-1.1.upf
  ATOMIC_POSITIONS { crystal }
Mo       0.333333333   0.666666667   0.000000000
S        0.666666667   0.333333333   0.073413577
S        0.666666667   0.333333333  -0.073413577
 K_POINTS { automatic }
6 6 1 0 0 0
~
