&input
    fildyn='C.dynG'
    zasr='simple', 
    flfrc='diamond.fc'
/
