&inputpp
outdir = './'
prefix = 'LiF'
seedname = 'LiF'
write_amn = .true.
write_mmn = .true.
write_unk = .true.
/
