&control
         calculation = 'nscf'
              prefix = 'si'
          wf_collect = .true.
/&end
&system
    force_symmorphic = .true.
                nbnd = 30
             ecutwfc = 60
         occupations = 'fixed'
           celldm(1) = 10.3
               ibrav = 2
                 nat = 2
                ntyp = 1
/&end
&electrons
      diago_full_acc = .true.
            conv_thr = 1e-08
/&end
ATOMIC_SPECIES
  Si   28.086    Si.pbe-mt_fhi.UPF
ATOMIC_POSITIONS { crystal }
 Si   0.1250000000   0.1250000000   0.1250000000
 Si  -0.1250000000  -0.1250000000  -0.1250000000
K_POINTS { automatic }
  2  2  2  0  0  0
