&control
         calculation = 'vc-relax'
              prefix = 'si'
          pseudo_dir = '..'
          wf_collect = .true.
/&end
&system
             ecutwfc = 40
         occupations = 'fixed'
           celldm(1) = 10.3
               ibrav = 2
                 nat = 2
                ntyp = 1
/&end
&electrons
            conv_thr = 1e-08
/&end
&ions
        ion_dynamics = 'bfgs'
/&end
&cell
       cell_dynamics = 'bfgs'
/&end
ATOMIC_SPECIES
  Si   28.086    Si.pbe-mt_fhi.UPF
ATOMIC_POSITIONS { crystal }
 Si   0.1250000000   0.1250000000   0.1250000000
 Si  -0.1250000000  -0.1250000000  -0.1250000000
K_POINTS { automatic }
  4  4  4  0  0  0
