  &control
    calculation = 'nscf',
    verbosity='high'
    pseudo_dir   = "../psps"
    outdir       = "."
    wf_collect=.TRUE., 
    prefix='LiF',
 /
 &system
    ibrav = 2, nat = 2, ntyp = 2, 
    force_symmorphic=.TRUE. , 
    ecutwfc = 80.0,
    nbnd = 50 ,    
    celldm(1)=7.703476,
 /
 &electrons
    diago_full_acc = .TRUE.,
    conv_thr =  1.0d-10
 /
 ATOMIC_SPECIES
    Li    6.941       Li.LDA.cpi.UPF
     F    18.998403   F.LDA.cpi.UPF
 ATOMIC_POSITIONS crystal
Li  0. 0. 0.
 F  0.5 -0.5 -0.5
K_POINTS automatic
 4  4  4  0  0  0
