&control
         calculation = 'scf'
              prefix = 'bn_s'
           verbosity = 'high'
          wf_collect = .true.
/&end
&system
             ecutwfc = 60
         occupations = 'fixed'
           celldm(1) = 18.8
               ibrav = 4
           celldm(3) = 0.271616115889
                 nat = 48
                ntyp = 2
/&end
&electrons
            conv_thr = 1e-08
/&end
ATOMIC_SPECIES
   B   10.811     B.pbe-mt_fhi.UPF
   N  14.0067     N.pbe-mt_fhi.UPF
ATOMIC_POSITIONS { crystal }
  N   0.0000000000   0.0000000000   0.2500000000
  B   0.0833333333   0.2222222222   0.2500000000
  N   0.2500000000   0.0000000000   0.2500000000
  B   0.3333333333   0.2222222222   0.2500000000
  N   0.5000000000   0.0000000000   0.2500000000
  B   0.5833333333   0.2222222222   0.2500000000
  N   0.7500000000   0.0000000000   0.2500000000
  B   0.8333333333   0.2222222222   0.2500000000
  N   0.0000000000   0.3333333333   0.2500000000
  B   0.0833333333   0.5555555556   0.2500000000
  N   0.2500000000   0.3333333333   0.2500000000
  B   0.3333333333   0.5555555556   0.2500000000
  N   0.5000000000   0.3333333333   0.2500000000
  B   0.5833333333   0.5555555556   0.2500000000
  N   0.7500000000   0.3333333333   0.2500000000
  B   0.8333333333   0.5555555556   0.2500000000
  N   0.0000000000   0.6666666667   0.2500000000
  B   0.0833333333   0.8888888889   0.2500000000
  N   0.2500000000   0.6666666667   0.2500000000
  B   0.3333333333   0.8888888889   0.2500000000
  N   0.5000000000   0.6666666667   0.2500000000
  B   0.5833333333   0.8888888889   0.2500000000
  N   0.7500000000   0.6666666667   0.2500000000
  B   0.8333333333   0.8888888889   0.2500000000
  N   0.0000000000   0.0000000000   0.7500000000
  B   0.0833333333   0.2222222222   0.7500000000
  N   0.2500000000   0.0000000000   0.7500000000
  B   0.3333333333   0.2222222222   0.7500000000
  N   0.5000000000   0.0000000000   0.7500000000
  B   0.5833333333   0.2222222222   0.7500000000
  N   0.7500000000   0.0000000000   0.7500000000
  B   0.8333333333   0.2222222222   0.7500000000
  N   0.0000000000   0.3333333333   0.7500000000
  B   0.0833333333   0.5555555556   0.7500000000
  N   0.2500000000   0.3333333333   0.7500000000
  B   0.3333333333   0.5555555556   0.7500000000
  N   0.5000000000   0.3333333333   0.7500000000
  B   0.5833333333   0.5555555556   0.7500000000
  N   0.7500000000   0.3333333333   0.7500000000
  B   0.8333333333   0.5555555556   0.7500000000
  N   0.0000000000   0.6666666667   0.7500000000
  B   0.0833333333   0.8888888889   0.7500000000
  N   0.2500000000   0.6666666667   0.7500000000
  B   0.3333333333   0.8888888889   0.7500000000
  N   0.5000000000   0.6666666667   0.7500000000
  B   0.5833333333   0.8888888889   0.7500000000
  N   0.7500000000   0.6666666667   0.7500000000
  B   0.8333333333   0.8888888889   0.7500000000
K_POINTS { automatic }
  3  3  1  0  0  0
