&BANDS
    prefix = 'LiF',
    outdir = './',
    lsym = .true.,
    filband = 'LiF'
 /
