  &control
    calculation = 'nscf',
    verbosity='high'
    pseudo_dir   = "../psps"
    outdir       = "."
    wf_collect=.TRUE.,
    prefix='LiF',
 /
 &system
    ibrav = 2, nat = 2, ntyp = 2,
    force_symmorphic=.TRUE. ,
    ecutwfc = 80.0,
    nbnd = 10 ,
    celldm(1)=7.703476,
 /
 &electrons
    diago_full_acc = .TRUE.,
    conv_thr =  1.0d-10
 /
 ATOMIC_SPECIES
    Li    6.941       Li.LDA.cpi.UPF
     F    18.998403   F.LDA.cpi.UPF
 ATOMIC_POSITIONS crystal
Li  0. 0. 0.
 F  0.5 -0.5 -0.5
K_POINTS crystal_b
121
0.5    0.25    0.75    1
0.5    0.25833333333333336    0.7416666666666667    1
0.5    0.26666666666666666    0.7333333333333333    1
0.5    0.275    0.725    1
0.5    0.2833333333333333    0.7166666666666667    1
0.5    0.2916666666666667    0.7083333333333334    1
0.5    0.3    0.7    1
0.5    0.30833333333333335    0.6916666666666667    1
0.5    0.31666666666666665    0.6833333333333333    1
0.5    0.325    0.675    1
0.5    0.3333333333333333    0.6666666666666666    1
0.5    0.3416666666666667    0.6583333333333333    1
0.5    0.35    0.65    1
0.5    0.35833333333333334    0.6416666666666666    1
0.5    0.3666666666666667    0.6333333333333333    1
0.5    0.375    0.625    1
0.5    0.3833333333333333    0.6166666666666667    1
0.5    0.39166666666666666    0.6083333333333334    1
0.5    0.4    0.6    1
0.5    0.4083333333333333    0.5916666666666667    1
0.5    0.41666666666666663    0.5833333333333334    1
0.5    0.425    0.575    1
0.5    0.43333333333333335    0.5666666666666667    1
0.5    0.44166666666666665    0.5583333333333333    1
0.5    0.45    0.55    1
0.5    0.45833333333333337    0.5416666666666666    1
0.5    0.4666666666666667    0.5333333333333333    1
0.5    0.475    0.525    1
0.5    0.48333333333333334    0.5166666666666666    1
0.5    0.4916666666666667    0.5083333333333333    1
0.5    0.5    0.5    1
0.48333333333333334    0.48333333333333334    0.48333333333333334    1
0.4666666666666667    0.4666666666666667    0.4666666666666667    1
0.45    0.45    0.45    1
0.43333333333333335    0.43333333333333335    0.43333333333333335    1
0.4166666666666667    0.4166666666666667    0.4166666666666667    1
0.4    0.4    0.4    1
0.3833333333333333    0.3833333333333333    0.3833333333333333    1
0.3666666666666667    0.3666666666666667    0.3666666666666667    1
0.35    0.35    0.35    1
0.33333333333333337    0.33333333333333337    0.33333333333333337    1
0.31666666666666665    0.31666666666666665    0.31666666666666665    1
0.3    0.3    0.3    1
0.2833333333333333    0.2833333333333333    0.2833333333333333    1
0.26666666666666666    0.26666666666666666    0.26666666666666666    1
0.25    0.25    0.25    1
0.23333333333333334    0.23333333333333334    0.23333333333333334    1
0.21666666666666667    0.21666666666666667    0.21666666666666667    1
0.2    0.2    0.2    1
0.18333333333333335    0.18333333333333335    0.18333333333333335    1
0.16666666666666669    0.16666666666666669    0.16666666666666669    1
0.15000000000000002    0.15000000000000002    0.15000000000000002    1
0.13333333333333336    0.13333333333333336    0.13333333333333336    1
0.11666666666666664    0.11666666666666664    0.11666666666666664    1
0.09999999999999998    0.09999999999999998    0.09999999999999998    1
0.08333333333333331    0.08333333333333331    0.08333333333333331    1
0.06666666666666665    0.06666666666666665    0.06666666666666665    1
0.04999999999999999    0.04999999999999999    0.04999999999999999    1
0.033333333333333326    0.033333333333333326    0.033333333333333326    1
0.016666666666666663    0.016666666666666663    0.016666666666666663    1
0.0    0.0    0.0    1
0.016666666666666666    0.0    0.016666666666666666    1
0.03333333333333333    0.0    0.03333333333333333    1
0.05    0.0    0.05    1
0.06666666666666667    0.0    0.06666666666666667    1
0.08333333333333333    0.0    0.08333333333333333    1
0.1    0.0    0.1    1
0.11666666666666667    0.0    0.11666666666666667    1
0.13333333333333333    0.0    0.13333333333333333    1
0.15    0.0    0.15    1
0.16666666666666666    0.0    0.16666666666666666    1
0.18333333333333332    0.0    0.18333333333333332    1
0.2    0.0    0.2    1
0.21666666666666667    0.0    0.21666666666666667    1
0.23333333333333334    0.0    0.23333333333333334    1
0.25    0.0    0.25    1
0.26666666666666666    0.0    0.26666666666666666    1
0.2833333333333333    0.0    0.2833333333333333    1
0.3    0.0    0.3    1
0.31666666666666665    0.0    0.31666666666666665    1
0.3333333333333333    0.0    0.3333333333333333    1
0.35    0.0    0.35    1
0.36666666666666664    0.0    0.36666666666666664    1
0.38333333333333336    0.0    0.38333333333333336    1
0.4    0.0    0.4    1
0.4166666666666667    0.0    0.4166666666666667    1
0.43333333333333335    0.0    0.43333333333333335    1
0.45    0.0    0.45    1
0.4666666666666667    0.0    0.4666666666666667    1
0.48333333333333334    0.0    0.48333333333333334    1
0.5    0.0    0.5    1
0.5    0.008333333333333333    0.5083333333333333    1
0.5    0.016666666666666666    0.5166666666666667    1
0.5    0.025    0.525    1
0.5    0.03333333333333333    0.5333333333333333    1
0.5    0.041666666666666664    0.5416666666666666    1
0.5    0.05    0.55    1
0.5    0.058333333333333334    0.5583333333333333    1
0.5    0.06666666666666667    0.5666666666666667    1
0.5    0.075    0.575    1
0.5    0.08333333333333333    0.5833333333333334    1
0.5    0.09166666666666666    0.5916666666666667    1
0.5    0.1    0.6    1
0.5    0.10833333333333334    0.6083333333333334    1
0.5    0.11666666666666667    0.6166666666666667    1
0.5    0.125    0.625    1
0.5    0.13333333333333333    0.6333333333333333    1
0.5    0.14166666666666666    0.6416666666666666    1
0.5    0.15    0.65    1
0.5    0.15833333333333333    0.6583333333333333    1
0.5    0.16666666666666666    0.6666666666666666    1
0.5    0.175    0.675    1
0.5    0.18333333333333332    0.6833333333333333    1
0.5    0.19166666666666668    0.6916666666666667    1
0.5    0.2    0.7    1
0.5    0.20833333333333334    0.7083333333333334    1
0.5    0.21666666666666667    0.7166666666666667    1
0.5    0.225    0.725    1
0.5    0.23333333333333334    0.7333333333333334    1
0.5    0.24166666666666667    0.7416666666666667    1
0.5    0.25    0.75    1

